benchmark/results/graph__10-1000-0.10-04_19/graph__10-1000-0.10-04_19_Quinton_Benders_primal_sub.txt
solution for: Quinton Benders_primal_sub
objective: 0.000361664
status: OPTIMAL_SOLUTION(2)
u_a0=1.000
u_a1=0.718
u_a2=0.348
u_a3=0.348
u_a4=0.944
u_a5=1.000
u_a6=0.672
u_a8=0.666
u_a9=0.326
tau=0.000
y_a0_proc_1=0.000
y_a1_proc_0=0.000
y_a2_proc_0=0.000
y_a3_proc_3=0.000
y_a4_proc_0=0.000
y_a5_proc_2=0.000
y_a6_proc_2=0.000
y_a7_proc_3=0.000
y_a8_proc_1=0.000
y_a9_proc_1=0.000
